(set-logic QF_S)
(declare-fun T_5 () Bool)
(declare-fun T_6 () Bool)
(declare-fun T_SELECT_1 () Bool)
(declare-fun I0_5 () Int)
(declare-fun PCTEMP_LHS_1 () Int)
(declare-fun T0_5 () String)
(declare-fun T1_5 () String)
(declare-fun T2_5 () String)
(declare-fun T3_5 () String)
(declare-fun T4_5 () String)
(declare-fun T5_5 () String)
(declare-fun var_0xINPUT_49890 () String)
(assert (= var_0xINPUT_49890 (str.++ T0_5 T1_5)))
(assert (= T1_5 (str.++ T2_5 T3_5)))
(assert (= T2_5 (str.++ T4_5 T5_5)))
(assert (not (str.in.re T4_5 (str.to.re "__utmz=218069774."))))
(assert (= T5_5 "__utmz=218069774."))
(assert T_6)
(assert (= T_6 (not T_5)))
(assert (= T_5 (< (- 1) PCTEMP_LHS_1)))
(assert (= PCTEMP_LHS_1 (+ I0_5 0)))
(assert (= T_SELECT_1 (not (= PCTEMP_LHS_1 (- 1)))))
(assert (= 0 (str.len T0_5))) ; len 0
(assert (= I0_5 (str.len T4_5))) ; len 1
(assert T_SELECT_1)
(check-sat)
